NAME : grid_constant_constant_6_4_1.tsp
COMMENT : grid_constant_constant_6_4_1.tsp
TYPE : TSP
DIMENSION : 24
EDGE_WEIGHT_TYPE : EUC_2D
NODE_COORD_SECTION
1 10.000000 10.000000
2 11.000000 10.000000
3 12.000000 10.000000
4 13.000000 10.000000
5 10.000000 11.000000
6 11.000000 11.000000
7 12.000000 11.000000
8 13.000000 11.000000
9 10.000000 12.000000
10 11.000000 12.000000
11 12.000000 12.000000
12 13.000000 12.000000
13 10.000000 13.000000
14 11.000000 13.000000
15 12.000000 13.000000
16 13.000000 13.000000
17 10.000000 14.000000
18 11.000000 14.000000
19 12.000000 14.000000
20 13.000000 14.000000
21 10.000000 15.000000
22 11.000000 15.000000
23 12.000000 15.000000
24 13.000000 15.000000
EOF